language Essence 1.3

letting codeWordLength be 40
letting dist be
        function((1, 1) --> 0, (1, 2) --> 5, (1, 3) --> 20, (1, 4) --> 12, (1, 5) --> 3, (1, 6) --> 15, (1, 7) --> 8,
                 (1, 8) --> 20, (1, 9) --> 9, (1, 10) --> 12, (1, 11) --> 12, (1, 12) --> 16, (1, 13) --> 18,
                 (1, 14) --> 7, (1, 15) --> 7, (1, 16) --> 14, (1, 17) --> 7, (1, 18) --> 16, (2, 1) --> 5,
                 (2, 2) --> 0, (2, 3) --> 0, (2, 4) --> 1, (2, 5) --> 1, (2, 6) --> 12, (2, 7) --> 19, (2, 8) --> 7,
                 (2, 9) --> 1, (2, 10) --> 20, (2, 11) --> 2, (2, 12) --> 0, (2, 13) --> 19, (2, 14) --> 9,
                 (2, 15) --> 9, (2, 16) --> 9, (2, 17) --> 12, (2, 18) --> 20, (3, 1) --> 20, (3, 2) --> 0,
                 (3, 3) --> 0, (3, 4) --> 17, (3, 5) --> 5, (3, 6) --> 8, (3, 7) --> 18, (3, 8) --> 2, (3, 9) --> 19,
                 (3, 10) --> 18, (3, 11) --> 3, (3, 12) --> 15, (3, 13) --> 6, (3, 14) --> 18, (3, 15) --> 13,
                 (3, 16) --> 3, (3, 17) --> 9, (3, 18) --> 16, (4, 1) --> 12, (4, 2) --> 1, (4, 3) --> 17, (4, 4) --> 0,
                 (4, 5) --> 17, (4, 6) --> 7, (4, 7) --> 12, (4, 8) --> 3, (4, 9) --> 19, (4, 10) --> 11, (4, 11) --> 7,
                 (4, 12) --> 8, (4, 13) --> 12, (4, 14) --> 8, (4, 15) --> 18, (4, 16) --> 14, (4, 17) --> 4,
                 (4, 18) --> 9, (5, 1) --> 3, (5, 2) --> 1, (5, 3) --> 5, (5, 4) --> 17, (5, 5) --> 0, (5, 6) --> 8,
                 (5, 7) --> 16, (5, 8) --> 18, (5, 9) --> 8, (5, 10) --> 5, (5, 11) --> 15, (5, 12) --> 17,
                 (5, 13) --> 0, (5, 14) --> 18, (5, 15) --> 12, (5, 16) --> 5, (5, 17) --> 17, (5, 18) --> 8,
                 (6, 1) --> 15, (6, 2) --> 12, (6, 3) --> 8, (6, 4) --> 7, (6, 5) --> 8, (6, 6) --> 0, (6, 7) --> 2,
                 (6, 8) --> 16, (6, 9) --> 8, (6, 10) --> 9, (6, 11) --> 12, (6, 12) --> 9, (6, 13) --> 18,
                 (6, 14) --> 2, (6, 15) --> 4, (6, 16) --> 1, (6, 17) --> 0, (6, 18) --> 10, (7, 1) --> 8,
                 (7, 2) --> 19, (7, 3) --> 18, (7, 4) --> 12, (7, 5) --> 16, (7, 6) --> 2, (7, 7) --> 0, (7, 8) --> 14,
                 (7, 9) --> 0, (7, 10) --> 14, (7, 11) --> 1, (7, 12) --> 3, (7, 13) --> 13, (7, 14) --> 3,
                 (7, 15) --> 15, (7, 16) --> 20, (7, 17) --> 14, (7, 18) --> 16, (8, 1) --> 20, (8, 2) --> 7,
                 (8, 3) --> 2, (8, 4) --> 3, (8, 5) --> 18, (8, 6) --> 16, (8, 7) --> 14, (8, 8) --> 0, (8, 9) --> 8,
                 (8, 10) --> 20, (8, 11) --> 6, (8, 12) --> 2, (8, 13) --> 6, (8, 14) --> 9, (8, 15) --> 17,
                 (8, 16) --> 4, (8, 17) --> 9, (8, 18) --> 8, (9, 1) --> 9, (9, 2) --> 1, (9, 3) --> 19, (9, 4) --> 19,
                 (9, 5) --> 8, (9, 6) --> 8, (9, 7) --> 0, (9, 8) --> 8, (9, 9) --> 0, (9, 10) --> 7, (9, 11) --> 1,
                 (9, 12) --> 8, (9, 13) --> 1, (9, 14) --> 4, (9, 15) --> 14, (9, 16) --> 20, (9, 17) --> 6,
                 (9, 18) --> 10, (10, 1) --> 12, (10, 2) --> 20, (10, 3) --> 18, (10, 4) --> 11, (10, 5) --> 5,
                 (10, 6) --> 9, (10, 7) --> 14, (10, 8) --> 20, (10, 9) --> 7, (10, 10) --> 0, (10, 11) --> 10,
                 (10, 12) --> 12, (10, 13) --> 7, (10, 14) --> 19, (10, 15) --> 13, (10, 16) --> 3, (10, 17) --> 20,
                 (10, 18) --> 14, (11, 1) --> 12, (11, 2) --> 2, (11, 3) --> 3, (11, 4) --> 7, (11, 5) --> 15,
                 (11, 6) --> 12, (11, 7) --> 1, (11, 8) --> 6, (11, 9) --> 1, (11, 10) --> 10, (11, 11) --> 0,
                 (11, 12) --> 20, (11, 13) --> 18, (11, 14) --> 16, (11, 15) --> 5, (11, 16) --> 9, (11, 17) --> 14,
                 (11, 18) --> 16, (12, 1) --> 16, (12, 2) --> 0, (12, 3) --> 15, (12, 4) --> 8, (12, 5) --> 17,
                 (12, 6) --> 9, (12, 7) --> 3, (12, 8) --> 2, (12, 9) --> 8, (12, 10) --> 12, (12, 11) --> 20,
                 (12, 12) --> 0, (12, 13) --> 5, (12, 14) --> 17, (12, 15) --> 15, (12, 16) --> 0, (12, 17) --> 7,
                 (12, 18) --> 0, (13, 1) --> 18, (13, 2) --> 19, (13, 3) --> 6, (13, 4) --> 12, (13, 5) --> 0,
                 (13, 6) --> 18, (13, 7) --> 13, (13, 8) --> 6, (13, 9) --> 1, (13, 10) --> 7, (13, 11) --> 18,
                 (13, 12) --> 5, (13, 13) --> 0, (13, 14) --> 20, (13, 15) --> 18, (13, 16) --> 13, (13, 17) --> 9,
                 (13, 18) --> 12, (14, 1) --> 7, (14, 2) --> 9, (14, 3) --> 18, (14, 4) --> 8, (14, 5) --> 18,
                 (14, 6) --> 2, (14, 7) --> 3, (14, 8) --> 9, (14, 9) --> 4, (14, 10) --> 19, (14, 11) --> 16,
                 (14, 12) --> 17, (14, 13) --> 20, (14, 14) --> 0, (14, 15) --> 14, (14, 16) --> 6, (14, 17) --> 10,
                 (14, 18) --> 1, (15, 1) --> 7, (15, 2) --> 9, (15, 3) --> 13, (15, 4) --> 18, (15, 5) --> 12,
                 (15, 6) --> 4, (15, 7) --> 15, (15, 8) --> 17, (15, 9) --> 14, (15, 10) --> 13, (15, 11) --> 5,
                 (15, 12) --> 15, (15, 13) --> 18, (15, 14) --> 14, (15, 15) --> 0, (15, 16) --> 19, (15, 17) --> 7,
                 (15, 18) --> 19, (16, 1) --> 14, (16, 2) --> 9, (16, 3) --> 3, (16, 4) --> 14, (16, 5) --> 5,
                 (16, 6) --> 1, (16, 7) --> 20, (16, 8) --> 4, (16, 9) --> 20, (16, 10) --> 3, (16, 11) --> 9,
                 (16, 12) --> 0, (16, 13) --> 13, (16, 14) --> 6, (16, 15) --> 19, (16, 16) --> 0, (16, 17) --> 8,
                 (16, 18) --> 3, (17, 1) --> 7, (17, 2) --> 12, (17, 3) --> 9, (17, 4) --> 4, (17, 5) --> 17,
                 (17, 6) --> 0, (17, 7) --> 14, (17, 8) --> 9, (17, 9) --> 6, (17, 10) --> 20, (17, 11) --> 14,
                 (17, 12) --> 7, (17, 13) --> 9, (17, 14) --> 10, (17, 15) --> 7, (17, 16) --> 8, (17, 17) --> 0,
                 (17, 18) --> 11, (18, 1) --> 16, (18, 2) --> 20, (18, 3) --> 16, (18, 4) --> 9, (18, 5) --> 8,
                 (18, 6) --> 10, (18, 7) --> 16, (18, 8) --> 8, (18, 9) --> 10, (18, 10) --> 14, (18, 11) --> 16,
                 (18, 12) --> 0, (18, 13) --> 12, (18, 14) --> 1, (18, 15) --> 19, (18, 16) --> 3, (18, 17) --> 11,
                 (18, 18) --> 0)
letting maxDist be 44
letting minDist be 221
letting nbCharacter be 18
letting numOfCodeWords be 13
